param set_len = 56;
param target_sum = 14666606650;
param values := [1] 665850810 [2] 242634468 [3] 637952452 [4] 661951244 [5] 138250656 [6] 796853186 [7] 597633704 [8] 672459929 [9] 58365479 [10] 485987987 [11] 93603022 [12] 752973249 [13] 279526509 [14] 101837297 [15] 780932784 [16] 821462620 [17] 613018092 [18] 988273559 [19] 205455186 [20] 571342085 [21] 504517803 [22] 53009230 [23] 127154443 [24] 1068047052 [25] 119227263 [26] 276150874 [27] 514072285 [28] 1014695375 [29] 281456932 [30] 946478339 [31] 870226105 [32] 501750677 [33] 236867713 [34] 185658610 [35] 180058842 [36] 331115199 [37] 595843943 [38] 685297239 [39] 156423938 [40] 1040978383 [41] 216538558 [42] 851409529 [43] 895205264 [44] 400125158 [45] 984569629 [46] 133353521 [47] 939741338 [48] 894218861 [49] 724554015 [50] 210523693 [51] 244646053 [52] 362497258 [53] 478251054 [54] 367722839 [55] 311410528 [56] 776132501 ;
